SDVRP instances/custom_instances/p04_9_split0.vrp
NAME:p04_9_split
BEST_KNOWN: 0
COMMENT: 0
DIMENSION: 688
CAPACITY: 200
EDGE_WEIGHT_FORMAT: FUNCTION
EDGE_WEIGHT_TYPE: EXACT_2D
NODE_COORD_SECTION
1 0.00000 0.00000
2 -1 25
3 -1 25
4 -10 46
5 -10 46
6 -10 46
7 -10 46
8 -10 46
9 -8 -12
10 -8 -12
11 -8 -12
12 -8 -12
13 -34 -27
14 -34 -27
15 -34 -27
16 -34 -27
17 -34 -27
18 7 -47
19 7 -47
20 7 -47
21 -16 -25
22 -16 -25
23 -16 -25
24 -16 -25
25 -16 -25
26 -16 -25
27 -16 -25
28 -34 -8
29 -34 -8
30 27 9
31 27 9
32 27 9
33 27 9
34 27 9
35 16 -29
36 16 -29
37 16 -29
38 16 -29
39 4 7
40 4 7
41 4 7
42 -20 -19
43 -20 -19
44 -20 -19
45 -39 -41
46 -39 -41
47 -39 -41
48 -19 -48
49 -19 -48
50 -19 -48
51 -19 -48
52 -16 -6
53 -16 -6
54 -16 -6
55 -16 -6
56 43 18
57 43 18
58 43 18
59 43 18
60 43 18
61 43 18
62 27 36
63 27 36
64 -21 42
65 -21 42
66 -21 42
67 -21 42
68 -21 42
69 -21 42
70 15 -21
71 15 -21
72 15 -21
73 15 -21
74 41 -35
75 41 -35
76 41 -35
77 41 -35
78 41 -35
79 41 -35
80 42 4
81 42 4
82 42 4
83 33 -30
84 33 -30
85 33 -30
86 33 -30
87 33 -30
88 33 -30
89 7 38
90 7 38
91 7 38
92 7 38
93 7 38
94 49 15
95 49 15
96 49 15
97 49 15
98 -28 13
99 -28 13
100 -28 13
101 -28 13
102 -28 13
103 -28 13
104 39 25
105 39 25
106 39 25
107 39 25
108 39 25
109 39 25
110 39 25
111 4 4
112 4 4
113 4 4
114 6 -2
115 6 -2
116 6 -2
117 30 -28
118 30 -28
119 30 -28
120 30 -28
121 30 -28
122 30 -28
123 -36 42
124 -36 42
125 -36 42
126 50 -14
127 50 -14
128 50 -14
129 50 -14
130 -43 11
131 -43 11
132 -43 11
133 -43 11
134 28 40
135 28 40
136 28 40
137 28 40
138 28 40
139 28 40
140 -39 -33
141 -39 -33
142 -39 -33
143 -39 -33
144 41 42
145 41 42
146 41 42
147 41 42
148 41 42
149 39 -20
150 39 -20
151 39 -20
152 39 -20
153 39 -20
154 -25 -41
155 -25 -41
156 -25 -41
157 -35 5
158 -35 5
159 11 49
160 11 49
161 11 49
162 11 49
163 11 49
164 11 49
165 -37 -6
166 -37 -6
167 -37 -6
168 -37 -6
169 42 -45
170 42 -45
171 42 -45
172 42 -45
173 42 -45
174 42 -45
175 -22 43
176 -22 43
177 -22 43
178 -22 43
179 -22 43
180 35 9
181 35 9
182 35 9
183 35 9
184 35 9
185 31 28
186 31 28
187 38 -14
188 38 -14
189 -37 -23
190 -37 -23
191 -39 2
192 -39 2
193 -39 2
194 -39 2
195 -39 2
196 -39 2
197 -2 23
198 -2 23
199 -2 23
200 -40 29
201 -40 29
202 -40 29
203 -40 29
204 -33 -49
205 -33 -49
206 -33 -49
207 -2 -20
208 -2 -20
209 -2 -20
210 -2 -20
211 -2 -20
212 -2 -20
213 19 -33
214 19 -33
215 19 -33
216 19 -33
217 19 -33
218 19 -33
219 -45 -48
220 -45 -48
221 -45 -48
222 -45 -48
223 15 47
224 15 47
225 15 47
226 15 47
227 15 47
228 15 47
229 48 -43
230 48 -43
231 48 -43
232 48 -43
233 48 -43
234 -30 10
235 -30 10
236 -30 10
237 -30 10
238 -30 10
239 -30 10
240 -8 -2
241 -8 -2
242 -8 -2
243 -8 -2
244 -8 -2
245 -44 16
246 -44 16
247 -44 16
248 -44 16
249 -25 33
250 -25 33
251 -25 33
252 -25 33
253 -49 38
254 -49 38
255 41 -14
256 41 -14
257 41 -14
258 41 -14
259 31 -50
260 31 -50
261 31 -50
262 31 -50
263 31 -50
264 25 -16
265 25 -16
266 25 -16
267 25 -16
268 25 -16
269 25 -16
270 -24 -10
271 -24 -10
272 -24 -10
273 -24 -10
274 6 50
275 6 50
276 6 50
277 6 50
278 6 50
279 30 -12
280 30 -12
281 30 -12
282 -42 24
283 -42 24
284 -42 24
285 17 19
286 17 19
287 -22 -25
288 -22 -25
289 -22 -25
290 -22 -25
291 50 -10
292 50 -10
293 50 -10
294 -19 -24
295 -19 -24
296 -19 -24
297 -19 -24
298 -19 -24
299 9 42
300 9 42
301 9 42
302 9 42
303 17 -12
304 17 -12
305 17 -12
306 17 -12
307 28 -26
308 28 -26
309 28 -26
310 28 -26
311 35 -22
312 35 -22
313 35 -22
314 35 -22
315 35 -22
316 35 -22
317 -48 -13
318 -48 -13
319 -48 -13
320 14 -2
321 14 -2
322 14 -2
323 14 -2
324 14 -2
325 47 -45
326 47 -45
327 47 -45
328 47 -45
329 47 -45
330 47 -45
331 -17 3
332 -17 3
333 -17 3
334 -17 3
335 -17 3
336 -17 3
337 11 45
338 11 45
339 11 45
340 44 6
341 44 6
342 44 6
343 23 -48
344 23 -48
345 23 -48
346 23 -48
347 -29 -41
348 -29 -41
349 -29 -41
350 -29 -41
351 -29 -41
352 -13 -17
353 -13 -17
354 -13 -17
355 -31 3
356 -31 3
357 -31 3
358 -31 3
359 -31 3
360 -31 3
361 -31 3
362 5 -28
363 5 -28
364 5 -28
365 5 -28
366 5 -28
367 5 -28
368 44 -44
369 44 -44
370 44 -44
371 44 -44
372 44 -44
373 44 -44
374 35 20
375 20 47
376 20 47
377 20 47
378 15 -25
379 15 -25
380 15 -25
381 15 -25
382 -31 -44
383 -31 -44
384 -31 -44
385 -31 -44
386 -31 -44
387 -31 -44
388 2 -44
389 2 -44
390 2 -44
391 2 -44
392 45 -32
393 45 -32
394 45 -32
395 45 -32
396 45 -32
397 45 -32
398 45 -32
399 -42 1
400 -42 1
401 -42 1
402 -42 1
403 -42 1
404 -42 1
405 -42 1
406 -42 1
407 -39 9
408 -39 9
409 -39 9
410 -39 9
411 -39 9
412 -39 9
413 5 -43
414 5 -43
415 5 -43
416 5 -43
417 -31 -14
418 -31 -14
419 -31 -14
420 -31 -14
421 -31 -14
422 -31 -14
423 -31 -14
424 -31 -14
425 -37 3
426 -37 3
427 -37 3
428 -37 3
429 -37 3
430 -47 -37
431 -47 -37
432 -47 -37
433 -47 -37
434 -31 2
435 -31 2
436 -31 2
437 -31 2
438 -31 2
439 33 -23
440 33 -23
441 33 -23
442 33 -23
443 -20 -48
444 -20 -48
445 -20 -48
446 -20 -48
447 -20 -48
448 -20 -48
449 -20 -48
450 -27 22
451 -27 22
452 21 -39
453 21 -39
454 21 -39
455 21 -39
456 21 -39
457 21 -39
458 21 -39
459 -27 -29
460 -27 -29
461 -27 -29
462 26 11
463 26 11
464 26 11
465 26 11
466 26 11
467 -20 -4
468 -20 -4
469 -20 -4
470 -20 -4
471 -20 -4
472 44 21
473 44 21
474 44 21
475 44 21
476 44 21
477 44 21
478 44 21
479 6 -33
480 6 -33
481 6 -33
482 6 -33
483 6 -33
484 32 -21
485 32 -21
486 32 -21
487 32 -21
488 -45 45
489 -45 45
490 -45 45
491 -19 -9
492 29 -30
493 29 -30
494 29 -30
495 29 -30
496 29 -30
497 29 -30
498 -28 12
499 -28 12
500 -28 12
501 -28 12
502 -28 12
503 -28 12
504 -35 -13
505 -35 -13
506 -35 -13
507 -35 -13
508 -35 -13
509 10 -32
510 10 -32
511 10 -32
512 10 -32
513 10 -32
514 -45 -15
515 -45 -15
516 -45 -15
517 35 -43
518 35 -43
519 35 -43
520 35 -43
521 35 -43
522 35 -43
523 -2 43
524 -2 43
525 -2 43
526 -2 43
527 -2 43
528 -2 43
529 37 26
530 37 26
531 27 -13
532 27 -13
533 27 -13
534 27 -13
535 27 -13
536 27 -13
537 9 39
538 9 39
539 9 39
540 9 39
541 -8 9
542 -8 9
543 -8 9
544 -8 9
545 -8 9
546 -8 9
547 -44 -35
548 -44 -35
549 -10 13
550 -10 13
551 -10 13
552 -10 13
553 34 21
554 34 21
555 34 21
556 10 17
557 10 17
558 10 17
559 10 17
560 -34 -7
561 -34 -7
562 -34 -7
563 -34 -7
564 -34 -7
565 -34 -7
566 -34 -7
567 -34 -7
568 -38 -13
569 -38 -13
570 -38 -13
571 -38 -13
572 44 21
573 44 21
574 44 21
575 44 21
576 44 21
577 44 21
578 25 7
579 25 7
580 25 7
581 25 7
582 25 7
583 14 28
584 14 28
585 14 28
586 14 28
587 -42 -10
588 -42 -10
589 -42 -10
590 -42 -10
591 6 -10
592 6 -10
593 6 -10
594 6 -10
595 6 -10
596 6 -10
597 -3 -15
598 -3 -15
599 -3 -15
600 -3 -15
601 -3 -15
602 -3 -15
603 -3 -15
604 -33 6
605 -33 6
606 -33 6
607 -33 6
608 -33 6
609 37 11
610 37 11
611 37 11
612 37 11
613 37 11
614 0 14
615 0 14
616 0 14
617 0 14
618 0 14
619 -11 44
620 -11 44
621 -11 44
622 -11 44
623 -11 44
624 -11 44
625 -11 44
626 33 4
627 33 4
628 33 4
629 33 4
630 33 4
631 33 4
632 -44 -40
633 -44 -40
634 -44 -40
635 -44 -40
636 -35 42
637 -35 42
638 -49 25
639 -49 25
640 -49 25
641 -49 25
642 -49 25
643 -49 25
644 -49 25
645 11 -9
646 11 -9
647 -37 36
648 -37 36
649 -37 36
650 -37 36
651 -37 36
652 -37 36
653 -37 36
654 -30 34
655 -30 34
656 -30 34
657 7 26
658 7 26
659 7 26
660 7 26
661 7 26
662 7 26
663 7 26
664 -44 -33
665 -44 -33
666 -44 -33
667 -44 -33
668 -44 -33
669 -44 -33
670 -44 -33
671 18 -8
672 18 -8
673 18 -8
674 18 -8
675 18 -8
676 18 -8
677 18 -8
678 -29 -27
679 -29 -27
680 -29 -27
681 -6 -9
682 -6 -9
683 -6 -9
684 -6 -9
685 -6 -9
686 -6 -9
687 -6 -9
688 -6 -9
DEMAND_SECTION
1 0
2 40
3 40
4 40
5 40
6 2
7 2
8 2
9 40
10 20
11 10
12 1
13 40
14 20
15 10
16 2
17 2
18 40
19 10
20 2
21 40
22 10
23 2
24 2
25 2
26 2
27 1
28 40
29 1
30 40
31 20
32 2
33 2
34 1
35 40
36 2
37 2
38 1
39 40
40 20
41 2
42 20
43 10
44 2
45 40
46 40
47 10
48 40
49 40
50 10
51 2
52 40
53 20
54 10
55 1
56 40
57 20
58 2
59 2
60 2
61 2
62 40
63 2
64 40
65 40
66 10
67 2
68 2
69 2
70 20
71 10
72 2
73 2
74 40
75 2
76 2
77 2
78 2
79 1
80 40
81 40
82 20
83 40
84 40
85 10
86 2
87 2
88 1
89 40
90 20
91 10
92 2
93 2
94 40
95 20
96 10
97 2
98 40
99 20
100 2
101 2
102 2
103 1
104 40
105 20
106 10
107 2
108 2
109 2
110 1
111 40
112 20
113 2
114 40
115 40
116 10
117 40
118 20
119 10
120 2
121 2
122 1
123 40
124 10
125 2
126 40
127 20
128 2
129 1
130 40
131 40
132 2
133 1
134 20
135 10
136 2
137 2
138 2
139 1
140 40
141 20
142 2
143 1
144 20
145 10
146 2
147 2
148 1
149 20
150 2
151 2
152 2
153 1
154 40
155 40
156 10
157 40
158 2
159 40
160 2
161 2
162 2
163 2
164 1
165 20
166 2
167 2
168 1
169 40
170 2
171 2
172 2
173 2
174 1
175 40
176 2
177 2
178 2
179 2
180 40
181 10
182 2
183 2
184 2
185 40
186 20
187 40
188 20
189 40
190 40
191 40
192 20
193 2
194 2
195 2
196 1
197 40
198 10
199 2
200 40
201 20
202 2
203 1
204 40
205 20
206 10
207 40
208 40
209 2
210 2
211 2
212 2
213 40
214 10
215 2
216 2
217 2
218 2
219 20
220 2
221 2
222 2
223 20
224 2
225 2
226 2
227 2
228 1
229 40
230 20
231 10
232 2
233 1
234 40
235 40
236 2
237 2
238 2
239 2
240 40
241 2
242 2
243 2
244 2
245 40
246 20
247 10
248 2
249 20
250 2
251 2
252 2
253 40
254 10
255 40
256 20
257 10
258 1
259 40
260 40
261 2
262 2
263 2
264 40
265 2
266 2
267 2
268 2
269 1
270 40
271 10
272 2
273 2
274 40
275 40
276 10
277 2
278 1
279 40
280 40
281 10
282 40
283 40
284 2
285 40
286 2
287 40
288 40
289 2
290 1
291 40
292 40
293 20
294 20
295 10
296 2
297 2
298 2
299 40
300 2
301 2
302 1
303 20
304 2
305 2
306 1
307 20
308 2
309 2
310 2
311 40
312 40
313 2
314 2
315 2
316 2
317 40
318 40
319 10
320 40
321 20
322 10
323 2
324 2
325 40
326 2
327 2
328 2
329 2
330 1
331 40
332 2
333 2
334 2
335 2
336 1
337 20
338 10
339 2
340 40
341 40
342 1
343 40
344 20
345 2
346 2
347 40
348 40
349 2
350 2
351 1
352 40
353 2
354 1
355 40
356 40
357 10
358 2
359 2
360 2
361 2
362 40
363 40
364 2
365 2
366 2
367 1
368 40
369 40
370 2
371 2
372 2
373 1
374 40
375 40
376 20
377 1
378 40
379 20
380 2
381 2
382 40
383 10
384 2
385 2
386 2
387 2
388 20
389 10
390 2
391 2
392 40
393 20
394 2
395 2
396 2
397 2
398 1
399 40
400 40
401 10
402 2
403 2
404 2
405 2
406 1
407 40
408 20
409 2
410 2
411 2
412 1
413 20
414 10
415 2
416 1
417 40
418 40
419 10
420 2
421 2
422 2
423 2
424 1
425 40
426 20
427 2
428 2
429 2
430 40
431 2
432 2
433 2
434 40
435 40
436 10
437 2
438 2
439 40
440 40
441 2
442 2
443 40
444 40
445 10
446 2
447 2
448 2
449 2
450 40
451 20
452 40
453 40
454 2
455 2
456 2
457 2
458 1
459 40
460 20
461 1
462 20
463 2
464 2
465 2
466 2
467 40
468 40
469 10
470 2
471 2
472 40
473 10
474 2
475 2
476 2
477 2
478 1
479 40
480 2
481 2
482 2
483 2
484 40
485 40
486 10
487 1
488 40
489 40
490 1
491 40
492 40
493 40
494 2
495 2
496 2
497 2
498 40
499 10
500 2
501 2
502 2
503 1
504 40
505 20
506 2
507 2
508 1
509 20
510 10
511 2
512 2
513 1
514 40
515 40
516 2
517 40
518 20
519 2
520 2
521 2
522 1
523 40
524 10
525 2
526 2
527 2
528 2
529 40
530 1
531 20
532 10
533 2
534 2
535 2
536 1
537 40
538 2
539 2
540 1
541 40
542 20
543 2
544 2
545 2
546 1
547 40
548 1
549 40
550 10
551 2
552 2
553 40
554 20
555 2
556 40
557 10
558 2
559 1
560 40
561 20
562 10
563 2
564 2
565 2
566 2
567 1
568 20
569 10
570 2
571 2
572 40
573 10
574 2
575 2
576 2
577 1
578 40
579 20
580 2
581 2
582 2
583 40
584 40
585 2
586 2
587 20
588 2
589 2
590 1
591 40
592 40
593 10
594 2
595 2
596 1
597 40
598 40
599 10
600 2
601 2
602 2
603 2
604 40
605 40
606 2
607 2
608 1
609 20
610 10
611 2
612 2
613 1
614 40
615 10
616 2
617 2
618 1
619 40
620 40
621 2
622 2
623 2
624 2
625 1
626 40
627 20
628 10
629 2
630 2
631 1
632 40
633 20
634 10
635 1
636 40
637 2
638 40
639 40
640 2
641 2
642 2
643 2
644 1
645 40
646 2
647 40
648 40
649 2
650 2
651 2
652 2
653 1
654 40
655 20
656 10
657 40
658 10
659 2
660 2
661 2
662 2
663 1
664 40
665 20
666 10
667 2
668 2
669 2
670 1
671 40
672 20
673 2
674 2
675 2
676 2
677 1
678 40
679 2
680 2
681 40
682 40
683 10
684 2
685 2
686 2
687 2
688 1
DEPOT_SECTION
1
-1
EOF