SDVRP instances/custom_instances/p04_9_split0.sol
687 -3 4 5 6 7 620 618 619 623 622 621 624 542 544 541 -9 386 382 383 381 384 385 204 205 203 220 221 218 219 46 297 294 -13 12 14 16 679 677 678 458 459 460 41 43 -15 666 667 664 669 668 665 663 547 546 140 141 139 142 42 -25 23 22 21 26 20 24 289 287 288 286 353 351 352 -29 30 33 31 32 608 182 179 625 626 630 627 -35 36 37 454 451 260 262 261 259 258 518 516 517 521 520 519 -40 38 39 1 2 198 197 196 -45 44 633 634 631 632 429 432 430 431 -49 50 47 48 444 443 447 448 446 442 445 -51 52 53 490 467 466 468 -54 514 513 515 318 316 317 587 586 588 589 -61 138 136 133 134 135 137 376 374 375 225 226 224 223 222 227 336 337 338 -70 69 213 214 215 212 217 216 456 452 453 457 455 345 343 342 344 -72 71 380 377 379 378 34 511 365 366 362 363 361 364 -94 96 93 95 58 57 56 55 373 553 -112 111 110 463 462 461 465 464 577 580 581 579 578 319 -113 114 644 591 590 -115 265 264 267 266 315 314 311 313 312 310 486 484 485 483 -121 120 119 328 326 329 325 327 324 229 230 232 228 231 391 394 392 396 395 393 397 -127 126 128 125 290 291 292 320 322 321 323 -155 153 154 347 349 350 346 348 296 295 293 -156 157 425 428 426 427 424 194 193 191 192 190 195 -160 158 162 161 163 159 275 276 273 274 277 525 527 522 526 523 524 -171 173 172 168 170 169 368 372 367 371 369 370 75 76 74 78 73 77 84 307 309 -177 175 176 178 174 66 68 63 67 64 65 613 617 614 616 615 -183 181 180 339 341 340 79 81 80 628 629 -185 184 106 109 472 576 572 573 471 475 571 476 477 574 474 473 575 59 60 609 610 612 611 -186 187 255 257 256 254 149 151 150 152 148 263 268 -189 188 570 569 568 567 505 504 27 28 561 469 470 -199 201 202 200 252 253 489 487 488 -208 211 209 206 207 210 596 597 601 602 600 598 599 -243 242 241 240 239 10 8 11 687 680 681 686 684 685 682 683 -244 246 132 129 130 131 410 407 411 409 406 408 -245 247 639 638 640 637 642 643 641 282 281 283 -272 269 270 271 423 419 417 416 420 418 422 421 506 507 503 -279 278 280 534 531 530 533 532 535 675 673 674 671 676 670 672 -285 62 143 146 145 147 144 528 529 107 108 104 103 105 552 554 -305 303 304 302 439 438 441 440 83 82 87 86 85 645 -306 308 117 118 116 491 495 496 494 493 492 592 595 594 593 -331 332 335 334 333 330 500 497 99 101 100 102 97 98 540 -358 357 356 359 355 354 360 433 436 434 437 435 -398 399 400 401 404 402 405 403 164 165 166 167 563 562 565 564 560 566 559 -450 449 653 654 655 249 250 248 251 548 -480 482 479 481 478 388 387 389 390 18 19 17 415 413 412 414 510 509 508 512 -498 501 499 502 235 236 233 237 234 238 606 607 604 605 603 -545 543 650 648 649 646 652 647 651 123 122 124 635 636 550 549 551 -555 284 583 582 656 -557 558 556 584 585 536 539 538 537 299 298 301 300 88 90 89 92 91 658 660 659 662 661 657 0 





OBJ=
4487.132
BEST_KNOWN=
0.000